Please solve the following SAT Problem encoded in DIMACS format, provide line of thoughts, write your final answer as a single solution at the end of response with header 'answer: ' : 
p cnf 10 50
-5 -2 -4 0
-2 -3 6 0
3 8 -4 0
1 -3 9 0
-1 7 9 0
-5 1 -6 0
-1 -5 -10 0
-4 -3 -1 0
10 -1 -6 0
-4 7 -5 0
7 9 -8 0
-4 -3 -2 0
-4 10 -2 0
-8 -3 -6 0
3 -2 10 0
-1 8 -4 0
-4 -7 -6 0
-4 10 1 0
-1 -9 -6 0
-6 10 -3 0
8 3 -1 0
7 -8 -10 0
-6 7 10 0
10 -6 -5 0
-6 10 -2 0
5 -1 7 0
-5 9 -2 0
-4 -6 -3 0
9 -3 -8 0
-4 -9 -2 0
-3 -1 -8 0
9 10 -2 0
-10 9 2 0
-5 -8 4 0
-6 -2 3 0
-8 -6 -4 0
-8 10 7 0
-6 -5 10 0
4 -8 -6 0
-5 -3 4 0
9 -6 -1 0
7 9 -2 0
-5 9 -3 0
7 -6 1 0
-6 -4 -1 0
10 3 -1 0
9 -4 1 0
9 10 -8 0
-8 10 7 0
3 7 -4 0

